graphs/r250.1.col
p edge 250 867
e 1 19
e 1 31
e 1 75
e 1 138
e 1 175
e 2 24
e 2 250
e 3 16
e 3 28
e 3 88
e 3 121
e 3 222
e 4 67
e 4 130
e 4 196
e 4 221
e 5 10
e 5 39
e 5 146
e 5 199
e 5 217
e 6 9
e 6 29
e 6 81
e 6 99
e 6 245
e 6 248
e 7 53
e 7 55
e 7 100
e 7 132
e 7 154
e 7 246
e 7 249
e 8 47
e 8 86
e 8 201
e 9 29
e 9 45
e 9 59
e 9 108
e 9 110
e 9 175
e 10 23
e 10 39
e 10 60
e 10 160
e 10 163
e 10 191
e 11 37
e 11 44
e 11 89
e 11 109
e 11 112
e 11 124
e 11 158
e 11 164
e 11 198
e 12 23
e 12 60
e 12 68
e 12 73
e 12 94
e 12 102
e 12 159
e 12 160
e 12 163
e 12 191
e 12 224
e 13 76
e 13 199
e 13 209
e 13 217
e 13 218
e 13 227
e 14 27
e 14 87
e 14 130
e 14 167
e 14 210
e 15 29
e 15 37
e 15 41
e 15 46
e 15 81
e 15 85
e 15 216
e 15 243
e 16 22
e 16 28
e 16 88
e 16 121
e 16 222
e 17 24
e 17 57
e 17 71
e 17 78
e 17 179
e 17 183
e 17 192
e 17 211
e 17 243
e 17 250
e 18 104
e 18 136
e 18 228
e 19 31
e 19 75
e 19 80
e 19 91
e 19 138
e 19 153
e 19 185
e 19 203
e 20 98
e 20 113
e 20 150
e 20 172
e 20 204
e 20 208
e 20 238
e 21 32
e 21 35
e 21 74
e 21 96
e 21 127
e 21 139
e 21 161
e 21 167
e 21 177
e 21 194
e 22 45
e 22 88
e 22 108
e 22 138
e 22 185
e 22 222
e 23 39
e 23 60
e 23 68
e 23 159
e 23 160
e 23 163
e 23 191
e 24 57
e 24 78
e 24 183
e 24 211
e 24 250
e 25 33
e 25 50
e 25 52
e 25 105
e 25 165
e 25 166
e 25 180
e 25 207
e 26 71
e 26 78
e 26 192
e 26 211
e 27 130
e 27 167
e 28 34
e 28 88
e 28 152
e 28 188
e 28 222
e 29 41
e 29 46
e 29 81
e 29 85
e 29 216
e 29 248
e 30 44
e 30 56
e 30 115
e 30 123
e 30 128
e 30 158
e 30 162
e 31 75
e 31 80
e 31 91
e 31 138
e 31 175
e 32 74
e 32 127
e 32 139
e 32 242
e 33 50
e 33 52
e 33 105
e 33 165
e 33 180
e 33 207
e 34 63
e 34 126
e 34 140
e 34 141
e 35 87
e 35 167
e 35 177
e 35 210
e 35 212
e 35 242
e 36 113
e 36 129
e 36 181
e 36 229
e 37 71
e 37 109
e 37 192
e 37 243
e 38 184
e 39 135
e 39 163
e 39 191
e 40 64
e 40 97
e 40 107
e 40 112
e 40 124
e 40 125
e 40 164
e 41 46
e 41 81
e 41 82
e 41 142
e 41 216
e 41 248
e 42 43
e 42 67
e 42 196
e 42 221
e 43 67
e 43 68
e 43 196
e 43 221
e 44 89
e 44 112
e 44 114
e 44 115
e 44 123
e 44 124
e 44 128
e 44 158
e 44 198
e 44 206
e 45 59
e 45 85
e 45 108
e 45 110
e 45 138
e 45 175
e 46 51
e 46 62
e 46 81
e 46 216
e 46 248
e 47 93
e 47 146
e 47 187
e 48 66
e 48 149
e 48 174
e 48 178
e 48 219
e 49 82
e 49 99
e 49 134
e 50 52
e 50 105
e 50 165
e 50 166
e 51 62
e 51 89
e 51 123
e 51 128
e 51 162
e 51 216
e 52 101
e 52 105
e 52 165
e 52 207
e 53 132
e 53 154
e 53 186
e 53 249
e 54 65
e 54 73
e 54 94
e 54 95
e 54 120
e 54 173
e 54 196
e 54 220
e 55 56
e 55 100
e 55 154
e 55 246
e 55 249
e 56 100
e 56 115
e 56 246
e 56 249
e 57 71
e 57 78
e 57 179
e 57 183
e 57 192
e 57 211
e 57 243
e 57 250
e 58 63
e 58 79
e 58 90
e 58 137
e 58 140
e 58 141
e 58 188
e 58 232
e 59 85
e 59 108
e 59 110
e 59 179
e 60 68
e 60 159
e 60 160
e 60 163
e 60 191
e 60 224
e 61 155
e 62 123
e 62 128
e 62 142
e 62 162
e 62 197
e 62 216
e 63 65
e 63 79
e 63 120
e 63 126
e 63 137
e 63 140
e 63 141
e 64 77
e 64 97
e 64 107
e 65 79
e 65 95
e 65 116
e 65 117
e 65 120
e 65 137
e 65 173
e 66 149
e 66 155
e 66 174
e 66 178
e 67 73
e 67 196
e 67 220
e 67 221
e 68 159
e 69 180
e 69 225
e 70 75
e 70 80
e 70 91
e 70 149
e 70 153
e 70 178
e 70 203
e 70 230
e 71 78
e 71 192
e 71 211
e 71 243
e 72 241
e 73 94
e 73 159
e 73 196
e 73 220
e 73 224
e 74 96
e 74 139
e 74 161
e 74 177
e 74 194
e 75 80
e 75 91
e 75 153
e 75 203
e 75 230
e 76 168
e 76 182
e 76 209
e 76 223
e 76 227
e 76 234
e 76 239
e 77 104
e 77 229
e 78 183
e 78 211
e 78 243
e 78 250
e 79 95
e 79 116
e 79 117
e 79 120
e 79 137
e 79 141
e 79 173
e 79 190
e 80 91
e 80 153
e 80 203
e 80 230
e 81 82
e 81 99
e 81 216
e 81 248
e 82 99
e 82 134
e 82 142
e 82 248
e 83 84
e 83 92
e 83 147
e 83 169
e 83 170
e 83 171
e 83 205
e 83 214
e 83 235
e 84 92
e 84 147
e 84 170
e 84 184
e 84 205
e 85 110
e 85 179
e 85 243
e 86 101
e 87 210
e 87 212
e 88 106
e 88 152
e 88 185
e 88 222
e 89 109
e 89 112
e 89 128
e 89 158
e 89 164
e 89 198
e 90 157
e 90 188
e 90 232
e 91 153
e 91 203
e 91 230
e 92 118
e 92 133
e 92 147
e 92 170
e 92 171
e 92 189
e 92 202
e 92 205
e 92 225
e 92 235
e 92 240
e 93 146
e 93 187
e 93 199
e 93 217
e 93 218
e 94 95
e 94 102
e 94 151
e 94 159
e 94 220
e 94 224
e 95 116
e 95 117
e 95 120
e 95 131
e 95 137
e 95 151
e 95 168
e 95 173
e 96 139
e 96 161
e 96 177
e 96 194
e 97 107
e 97 112
e 97 114
e 97 124
e 97 125
e 97 164
e 97 181
e 98 113
e 98 150
e 98 172
e 98 204
e 98 208
e 98 238
e 99 134
e 99 245
e 99 248
e 100 154
e 100 246
e 100 249
e 101 122
e 101 165
e 101 182
e 101 234
e 102 131
e 102 151
e 102 159
e 102 224
e 103 122
e 103 193
e 103 207
e 103 231
e 103 233
e 103 247
e 104 136
e 104 200
e 104 244
e 105 165
e 105 166
e 105 180
e 105 207
e 106 152
e 106 185
e 107 124
e 107 125
e 107 164
e 107 181
e 108 110
e 108 138
e 108 175
e 109 112
e 109 124
e 109 158
e 109 164
e 109 198
e 111 143
e 111 145
e 111 200
e 111 211
e 111 226
e 111 231
e 111 236
e 111 244
e 112 114
e 112 124
e 112 125
e 112 158
e 112 164
e 112 198
e 112 206
e 113 150
e 113 172
e 113 204
e 113 229
e 114 124
e 114 125
e 114 158
e 114 164
e 114 181
e 114 198
e 114 206
e 115 158
e 115 246
e 116 117
e 116 131
e 116 137
e 116 148
e 116 151
e 116 168
e 116 173
e 116 190
e 116 223
e 116 239
e 117 131
e 117 137
e 117 148
e 117 151
e 117 168
e 117 173
e 117 190
e 117 223
e 117 239
e 118 133
e 118 189
e 118 202
e 118 240
e 119 122
e 119 144
e 119 148
e 119 182
e 119 193
e 119 234
e 120 137
e 120 173
e 121 179
e 121 183
e 121 222
e 121 250
e 122 144
e 122 165
e 122 182
e 122 193
e 122 207
e 122 233
e 122 234
e 123 128
e 123 158
e 123 162
e 123 197
e 124 125
e 124 158
e 124 164
e 124 198
e 124 206
e 125 129
e 125 164
e 125 181
e 125 206
e 126 140
e 126 141
e 126 210
e 126 212
e 126 242
e 127 242
e 128 158
e 128 162
e 128 198
e 129 181
e 129 215
e 131 151
e 131 168
e 131 173
e 131 190
e 131 223
e 131 239
e 132 154
e 132 186
e 133 189
e 133 202
e 133 240
e 136 143
e 136 176
e 136 200
e 136 226
e 136 236
e 136 244
e 136 247
e 137 173
e 137 190
e 138 175
e 139 161
e 139 167
e 139 177
e 139 194
e 140 141
e 142 162
e 142 197
e 142 248
e 143 145
e 143 176
e 143 200
e 143 226
e 143 231
e 143 233
e 143 236
e 143 244
e 143 247
e 144 148
e 144 182
e 144 193
e 144 234
e 144 239
e 145 200
e 145 211
e 145 226
e 145 231
e 145 236
e 145 244
e 146 187
e 146 199
e 146 217
e 147 169
e 147 170
e 147 171
e 147 205
e 147 235
e 148 168
e 148 182
e 148 190
e 148 223
e 148 234
e 148 239
e 149 155
e 149 174
e 149 178
e 149 203
e 150 172
e 150 204
e 150 208
e 150 214
e 150 238
e 151 168
e 151 173
e 151 190
e 151 223
e 151 239
e 152 185
e 153 185
e 153 203
e 154 186
e 154 249
e 155 174
e 155 195
e 156 245
e 157 188
e 157 232
e 158 198
e 158 206
e 159 160
e 159 163
e 159 191
e 159 224
e 160 163
e 160 191
e 160 217
e 160 224
e 161 177
e 161 194
e 162 197
e 163 191
e 164 198
e 164 206
e 165 207
e 166 237
e 166 241
e 167 177
e 167 210
e 168 173
e 168 190
e 168 209
e 168 223
e 168 239
e 169 170
e 169 171
e 169 214
e 169 228
e 169 235
e 170 171
e 170 189
e 170 205
e 170 235
e 171 189
e 171 205
e 171 225
e 171 235
e 172 204
e 172 208
e 172 238
e 173 190
e 174 178
e 176 200
e 176 226
e 176 233
e 176 236
e 176 244
e 176 247
e 177 194
e 179 183
e 179 243
e 179 250
e 180 207
e 181 215
e 182 193
e 182 209
e 182 223
e 182 234
e 182 239
e 183 243
e 183 250
e 184 202
e 184 205
e 188 232
e 189 225
e 189 240
e 190 223
e 190 239
e 191 217
e 192 243
e 193 233
e 195 230
e 196 220
e 196 221
e 198 206
e 199 217
e 199 218
e 200 226
e 200 231
e 200 236
e 200 244
e 200 247
e 202 205
e 203 230
e 204 208
e 204 213
e 204 214
e 204 238
e 205 235
e 207 233
e 207 247
e 208 213
e 208 214
e 208 238
e 209 223
e 209 227
e 209 234
e 209 239
e 210 212
e 210 242
e 212 242
e 213 238
e 214 228
e 214 235
e 214 238
e 216 248
e 217 218
e 218 227
e 220 221
e 223 227
e 223 234
e 223 239
e 225 240
e 226 231
e 226 233
e 226 236
e 226 244
e 226 247
e 228 235
e 231 233
e 231 236
e 231 244
e 231 247
e 233 236
e 233 247
e 236 244
e 236 247
e 237 240
e 237 241
e 243 250
e 244 247
e 246 249
