results/clicolcom_results/r250.1.col.log
graphs/r250.1.col
c found max clique of size 8
c found chromatic number: 8
time: 0
